NAME: tsp5_3
COMMENT: 5-tsp problem (Padberg/Rinaldi)
TYPE: TSP
DIMENSION: 5
EDGE_WEIGHT_TYPE : EUC_2D
NODE_COORD_SECTION
1.00 8.44 8.59
2.00 33.16 36.09
3.00 35.22 7.73
4.00 36.15 30.91
5.00 2.36 26.84
